(set-logic QF_UF)
(declare-sort U 0)
(declare-sort I 0)
(declare-fun unit () I)
(declare-fun op (I I) I)
(declare-fun e5 () I)
(declare-fun e4 () I)
(declare-fun e3 () I)
(declare-fun e2 () I)
(declare-fun e1 () I)
(declare-fun e0 () I)
(assert (not (= (or (not (= e2 (op e2 (op e2 e2)))) (= e0 e2)) (or (not (= e2 (op e2 (op e2 e2)))) (= e2 e0)))))
(assert (= (not (= e2 (op e2 (op e2 e2)))) (not (= e2 (op e2 (op e2 e2))))))
(assert (= (= e0 e2) (= e2 e0)))
(check-sat)
(exit)
